sat
(:arith-branch        3
 :arith-cube-calls    1
 :arith-cube-success  1
 :arith-dio-calls     3
 :arith-gcd-calls     4
 :arith-lower         13
 :arith-make-feasible 7
 :arith-max-columns   44
 :arith-max-rows      25
 :arith-patches       4
 :arith-upper         15
 :decisions           3
 :final-checks        4
 :max-memory          19.26
 :memory              18.63
 :mk-bool-var         28
 :num-allocs          166996
 :num-checks          1
 :rlimit-count        4316
 :time                0.02
 :total-time          0.08)
